50
129650

6312 3633
6891 3910
664 2335
4243 8897
8377 7340
7962 1495
6635 1319
4970 5244
7809 8323
5867 8017
9559 1787
3579 4939
8269 9032
2282 4770
4618 2045
2290 8970
1554 5452
4105 8853
8726 3330
9862 9883
2408 8966
5082 9628
1619 4713
1209 7291
5410 1502
7736 9770
9172 6307
1650 5195
5797 9432
7114 3967
5181 4757
3351 3013
9053 3103
7816 3060
7254 541
8542 4261
4268 7808
1021 1132
8990 1472
231 2134
1529 2451
6535 634
19 1315
8087 8858
5459 6411
3997 8595
5329 4516
1032 8550
3131 3859
9299 3526
